experiment/data/lkh-res/Vrp-Set-B-n51/Vrp-Set-B-n51-lkh/0.lkh1.vrp
NAME : 0
COMMENT : CVRP Instance
TYPE : CVRP
DIMENSION : 51
EDGE_WEIGHT_TYPE : EUC_2D
CAPACITY : 100
NODE_COORD_SECTION
1	5300	5500
2	100	9000
3	9400	8500
4	1300	1900
5	9700	4500
6	7800	6900
7	9200	3500
8	9800	3600
9	9900	0
10	200	9400
11	8500	7700
12	9400	4200
13	10100	300
14	10300	5100
15	10600	3800
16	900	9500
17	8800	7100
18	8300	7700
19	10000	5500
20	1700	2300
21	300	9100
22	600	9100
23	900	10200
24	900	9500
25	800	10400
26	900	9900
27	9800	3900
28	10100	800
29	9900	3800
30	10300	5400
31	300	10300
32	10100	700
33	10300	800
34	2000	2500
35	9700	9300
36	0	5100
37	8100	7000
38	10300	700
39	9500	8700
40	10200	5400
41	8300	7200
42	10100	1000
43	10500	4800
44	9600	4000
45	500	9100
46	900	9600
47	1000	10000
48	900	9600
49	2200	2100
50	200	9500
51	900	9500
DEMAND_SECTION
1	0
2	9
3	10
4	14
5	5
6	8
7	10
8	15
9	16
10	23
11	4
12	22
13	16
14	12
15	20
16	18
17	9
18	17
19	42
20	9
21	17
22	7
23	4
24	7
25	13
26	6
27	22
28	6
29	13
30	21
31	16
32	20
33	11
34	18
35	24
36	26
37	9
38	21
39	3
40	22
41	7
42	10
43	17
44	8
45	10
46	12
47	10
48	24
49	5
50	10
51	6
DEPOT_SECTION
1
-1
EOF
