experiment/data/lkh-res/Vrp-Set-B-n51/Vrp-Set-B-n51-lkh/0.lkh1.tour
NAME : 0.103505.tour
COMMENT : Length = 103505
COMMENT : Found by LKH-3 [Keld Helsgaun] Tue Apr  9 00:57:58 2024
TYPE : TOUR
DIMENSION : 57
TOUR_SECTION
1
8
15
29
27
44
12
56
9
13
38
33
32
28
42
52
22
45
21
2
10
50
16
51
53
18
11
3
39
35
19
55
49
34
20
4
36
41
37
6
57
7
5
43
14
30
40
17
54
24
46
48
26
31
25
23
47
-1
EOF
